30
5	8	9	10	14	16	18	19	20	22	23	24	25	28	29	0
4	6	7	10	11	14	19	21	24	25	26	28	0
4	6	9	11	13	15	16	18	19	20	0
2	3	6	8	9	10	12	14	15	18	20	22	23	24	29	30	0
1	6	9	10	11	12	13	16	17	18	20	21	25	30	0
2	3	4	5	11	12	15	18	20	24	28	29	0
2	16	19	20	26	28	30	0
1	4	9	11	13	15	18	19	20	22	24	26	27	30	0
1	3	4	5	8	10	11	12	17	18	19	21	22	0
1	2	4	5	9	14	15	17	18	22	25	26	0
2	3	5	6	8	9	12	13	17	21	22	0
4	5	6	9	11	14	16	17	18	19	20	21	23	25	27	29	0
3	5	8	11	17	23	25	26	27	29	0
1	2	4	10	12	17	18	20	21	23	24	25	0
3	4	6	8	10	17	19	29	0
1	3	5	7	12	17	20	22	25	28	0
5	9	10	11	12	13	14	15	16	25	27	28	0
1	3	4	5	6	8	9	10	12	14	21	26	29	0
1	2	3	7	8	9	12	15	21	22	23	29	0
1	3	4	5	6	7	8	12	14	16	28	29	0
2	5	9	11	12	14	18	19	22	29	0
1	4	8	9	10	11	16	19	21	26	28	0
1	4	12	13	14	19	26	30	0
1	2	4	6	8	14	25	26	27	28	0
1	2	5	10	12	13	14	16	17	24	26	27	29	30	0
2	7	8	10	13	18	22	23	24	25	28	30	0
8	12	13	17	24	25	28	0
1	2	6	7	16	17	20	22	24	26	27	30	0
1	4	6	12	13	15	18	19	20	21	25	0
4	5	7	8	23	25	26	28	0


comments:
random graph
nodes 30
edges 172
rng seed 724 
